0 0 0 0
0 1 0 0
0 2 0 0
0 3 0 0
0 4 0 9
0 5 0 9
0 6 0 9
0 7 0 22
0 8 0 4
0 9 0 12
0 10 0 18
0 11 0 30
0 12 0 18
0 13 0 27
0 14 0 4
0 15 0 48
0 16 0 29
0 17 0 12
0 18 0 22
0 19 0 28
0 20 0 34
0 21 0 12
0 22 0 12
0 23 0 22
0 24 0 19
0 25 0 21
0 26 0 34
0 27 0 27
0 28 0 43
0 29 0 37
0 30 0 45
0 31 0 43
0 32 0 49
0 33 0 16
0 34 0 35
0 35 0 23
0 36 0 47
0 37 0 33
0 38 0 45
0 39 0 22
0 40 0 48
0 41 0 30
0 42 0 54
0 43 0 37
0 44 0 45
0 45 0 39
0 46 0 33
0 47 0 14
0 48 0 47
0 49 0 47
0 50 0 59
0 51 0 49
0 52 0 39
0 53 0 59
0 54 0 48
0 55 0 14
0 56 0 49
0 57 0 54
0 58 0 43
0 59 0 72
0 60 0 39
0 61 0 45
0 62 0 69
0 63 0 59
0 64 0 57
0 65 0 53
0 66 0 63
0 67 0 77
0 68 0 54
0 69 0 67
0 70 0 63
0 71 0 77
0 72 0 56
0 73 0 65
0 74 0 64
0 75 0 54
0 76 0 71
0 77 0 79
0 78 0 76
0 79 0 60
0 80 0 74
0 81 0 76
0 82 0 50
0 83 0 84
0 84 0 79
0 85 0 57
0 86 0 74
0 87 0 89
0 88 0 83
0 89 0 84
0 90 0 67
0 91 0 82
0 92 0 81
0 93 0 82
0 94 0 88
0 95 0 92
0 96 0 91
0 97 0 83
0 98 0 69
0 99 0 81
0 100 0 99
0 101 0 96
0 102 0 94
0 103 0 84
0 104 0 81
0 105 0 88
0 106 0 96
0 107 0 85
0 108 0 95
0 109 0 96
0 110 0 105
0 111 0 91
0 112 0 88
0 113 0 99
0 114 0 91
0 115 0 99
0 116 0 98
0 117 0 103
0 118 0 110
0 119 0 105
0 120 0 103
0 121 0 113
